Optimal - objective value 4.00000000
      3 x_0_3                       1                       0
     19 x_1_3                       1                       0
     46 x_2_14                      1                       0
     51 x_3_3                       1                       0
     73 x_4_9                       1                       0
     94 x_5_14                      1                       0
    110 x_6_14                      1                       0
    112 x_7_0                       1                       0
    137 x_8_9                       1                       0
    147 x_9_3                       1                       0
    160 x_10_0                      1                       0
    179 x_11_3                      1                       0
    201 x_12_9                      1                       0
    222 x_13_14                     1         -1.11022302462516e-16
    238 x_14_14                     1                       0
    249 x_15_9                      1                       1
    256 y_0                         1                       0
    259 y_3                         1         1.69967494438815e-16
    265 y_9                         1                       0
    270 y_14                        1                       0
